1 1 -2 0
1 1 -3 0
1 -2 1 0
1 2 3 0
1 4 5 0
1 4 6 0
1 -4 -7 0
1 4 8 0
1 4 9 0
1 -4 -10 0
1 -6 -8 0
1 6 11 0
1 -6 4 0
1 -6 -10 0
1 8 -12 0
1 -8 -13 0
1 -8 -14 0
1 -8 4 0
1 3 -15 0
1 -3 -16 0
1 -3 -17 0
1 -3 6 0
1 3 18 0
1 3 -19 0
1 -3 -4 0
1 3 1 0
1 7 16 0
1 7 20 0
1 7 21 0
1 -7 18 0
1 7 22 0
1 -7 10 0
1 10 21 0
1 10 2 0
1 -10 -7 0
1 10 -18 0
1 -10 -22 0
1 10 23 0
1 -10 -4 0
1 -10 -1 0
1 10 -24 0
1 -19 25 0
1 19 9 0
1 19 3 0
1 -17 21 0
1 -17 8 0
1 -17 -19 0
1 -17 3 0
1 -14 25 0
1 14 -5 0
1 -14 26 0
1 14 -27 0
1 -14 8 0
1 14 -9 0
1 14 28 0
1 14 -3 0
1 12 8 0
1 -12 9 0
1 -12 -14 0
1 11 29 0
1 11 -5 0
1 -11 -17 0
1 11 30 0
1 11 -31 0
1 5 29 0
1 5 12 0
1 -5 17 0
1 5 6 0
1 -5 -31 0
1 -5 -19 0
1 5 4 0
1 9 25 0
1 9 17 0
1 9 -18 0
1 9 19 0
1 -9 -32 0
1 25 33 0
1 -25 16 0
1 25 12 0
1 -25 -30 0
1 -25 9 0
1 -25 34 0
1 25 -18 0
1 -25 4 0
1 35 -26 0
1 -35 -27 0
1 -35 36 0
1 29 35 0
1 -29 28 0
1 -31 37 0
1 -31 34 0
1 31 11 0
1 -31 -36 0
1 37 26 0
1 -37 27 0
1 37 31 0
1 -37 11 0
1 -37 28 0
1 28 37 0
1 -28 -12 0
1 28 27 0
1 -28 35 0
1 -28 14 0
1 -28 -38 0
1 27 -37 0
1 27 -29 0
1 27 -39 0
1 27 -40 0
1 27 -14 0
1 36 37 0
1 -36 -40 0
1 -36 -30 0
1 36 14 0
1 -36 41 0
1 26 -37 0
1 26 35 0
1 26 -14 0
1 26 -42 0
1 -26 41 0
1 26 -32 0
1 -43 -44 0
1 43 -45 0
1 44 46 0
1 -44 -47 0
1 48 46 0
1 -48 49 0
1 -48 50 0
1 48 4 0
1 -51 -46 0
1 51 47 0
1 51 -6 0
1 47 52 0
1 -47 21 0
1 -47 -51 0
1 -47 44 0
1 -47 23 0
1 47 -48 0
1 -47 -43 0
1 45 47 0
1 45 21 0
1 45 -22 0
1 -46 -51 0
1 46 53 0
1 46 43 0
1 -53 -44 0
1 53 -48 0
1 53 43 0
1 23 -47 0
1 -23 -49 0
1 23 -21 0
1 -23 -7 0
1 23 -50 0
1 23 -19 0
1 21 -47 0
1 -21 17 0
1 21 54 0
1 -21 45 0
1 21 -55 0
1 -22 20 0
1 22 -54 0
1 22 45 0
1 -22 50 0
1 22 55 0
1 -22 56 0
1 -22 57 0
1 -20 55 0
1 -20 49 0
1 -20 -58 0
1 20 -59 0
1 20 7 0
1 -20 -45 0
1 -20 57 0
1 54 60 0
1 -54 55 0
1 54 16 0
1 -54 -61 0
1 -54 -62 0
1 -54 34 0
1 54 -23 0
1 -54 48 0
1 -55 -33 0
1 55 -16 0
1 -55 -54 0
1 55 -22 0
1 -55 -23 0
1 -55 -48 0
1 49 20 0
1 -49 51 0
1 -49 62 0
1 -49 22 0
1 -49 23 0
1 50 20 0
1 50 51 0
1 50 -62 0
1 -50 22 0
1 50 -48 0
1 -18 -25 0
1 -18 -16 0
1 18 54 0
1 18 58 0
1 18 59 0
1 18 -7 0
1 -18 -8 0
1 -18 -9 0
1 -18 -55 0
1 -18 -57 0
1 -18 10 0
1 -16 25 0
1 16 -8 0
1 16 -9 0
1 -16 -57 0
1 -16 10 0
1 16 3 0
1 -34 15 0
1 34 -59 0
1 -34 63 0
1 -34 -31 0
1 -34 55 0
1 -34 56 0
1 34 24 0
1 -33 -25 0
1 33 -54 0
1 -33 -13 0
1 33 -9 0
1 33 -34 0
1 33 -24 0
1 59 -33 0
1 59 16 0
1 59 -20 0
1 59 30 0
1 59 34 0
1 -59 18 0
1 -59 22 0
1 -59 57 0
1 59 -32 0
1 57 -16 0
1 57 64 0
1 -57 -30 0
1 -57 -65 0
1 57 34 0
1 57 -66 0
1 -58 -67 0
1 -58 -68 0
1 -58 -34 0
1 58 -22 0
1 58 56 0
1 -58 66 0
1 56 60 0
1 56 -33 0
1 56 16 0
1 56 -20 0
1 56 58 0
1 56 -67 0
1 -56 -68 0
1 56 62 0
1 56 34 0
1 -56 18 0
1 56 -22 0
1 -56 -66 0
1 -30 -15 0
1 -30 -25 0
1 30 -5 0
1 30 -26 0
1 -30 63 0
1 30 -62 0
1 30 13 0
1 30 11 0
1 -30 -36 0
1 -30 57 0
1 -30 32 0
1 32 -25 0
1 32 15 0
1 32 -59 0
1 32 63 0
1 32 -13 0
1 -32 57 0
1 64 -69 0
1 64 26 0
1 64 13 0
1 64 -70 0
1 64 -57 0
1 64 41 0
1 -41 71 0
1 -41 69 0
1 -41 -59 0
1 41 -63 0
1 41 13 0
1 41 -70 0
1 13 -33 0
1 -13 72 0
1 13 -30 0
1 13 -73 0
1 13 41 0
1 13 -32 0
1 -15 -33 0
1 15 72 0
1 -15 74 0
1 15 -40 0
1 15 30 0
1 -15 -34 0
1 -15 75 0
1 15 42 0
1 -63 -33 0
1 -63 76 0
1 -63 -30 0
1 63 34 0
1 -63 -75 0
1 -63 66 0
1 -63 24 0
1 -24 -67 0
1 24 34 0
1 24 10 0
1 -24 75 0
1 24 -66 0
1 -40 27 0
1 40 -13 0
1 -40 77 0
1 40 36 0
1 -40 -28 0
1 -42 -71 0
1 42 -26 0
1 42 -40 0
1 42 -70 0
1 42 -36 0
1 42 66 0
1 -74 69 0
1 74 -73 0
1 -74 -76 0
1 74 -13 0
1 74 -70 0
1 -74 -78 0
1 73 -15 0
1 73 -77 0
1 73 -70 0
1 73 -79 0
1 70 -80 0
1 -70 -81 0
1 -70 -40 0
1 -70 -82 0
1 70 41 0
1 69 80 0
1 69 -81 0
1 69 -74 0
1 -69 -70 0
1 -69 83 0
1 -69 73 0
1 -77 71 0
1 77 84 0
1 -77 40 0
1 -77 -64 0
1 -77 9 0
1 77 73 0
1 77 -41 0
1 -71 84 0
1 -71 74 0
1 71 -75 0
1 -71 73 0
1 71 42 0
1 71 -41 0
1 81 -39 0
1 -81 -72 0
1 -81 78 0
1 -81 -70 0
1 83 -69 0
1 83 85 0
1 -83 75 0
1 -80 -69 0
1 -80 85 0
1 -80 -39 0
1 80 -82 0
1 -80 -70 0
1 80 38 0
1 -82 69 0
1 -82 86 0
1 82 -78 0
1 82 -38 0
1 -38 81 0
1 38 39 0
1 -38 -82 0
1 38 83 0
1 -39 -27 0
1 -39 81 0
1 39 74 0
1 39 82 0
1 -39 38 0
1 -78 -80 0
1 -78 -74 0
1 -78 -73 0
1 85 -81 0
1 -85 74 0
1 -85 82 0
1 62 -49 0
1 62 54 0
1 -62 -87 0
1 -62 -50 0
1 60 -88 0
1 -60 54 0
1 -60 58 0
1 60 -62 0
1 60 -50 0
1 -60 55 0
1 68 61 0
1 -68 64 0
1 -68 -87 0
1 68 -89 0
1 -68 90 0
1 68 -91 0
1 91 92 0
1 91 61 0
1 91 68 0
1 -91 90 0
1 91 56 0
1 -52 -60 0
1 52 76 0
1 52 68 0
1 52 62 0
1 52 -79 0
1 52 -91 0
1 -87 60 0
1 87 -76 0
1 87 -67 0
1 -87 45 0
1 88 60 0
1 88 -68 0
1 -93 -88 0
1 93 91 0
1 -67 -52 0
1 67 61 0
1 -67 -40 0
1 67 59 0
1 67 87 0
1 67 89 0
1 -67 -90 0
1 67 -66 0
1 67 24 0
1 -66 -92 0
1 -66 -58 0
1 -66 -57 0
1 -66 -59 0
1 66 67 0
1 -66 87 0
1 -66 -90 0
1 -66 -42 0
1 -66 24 0
1 -76 -52 0
1 -76 -89 0
1 -76 79 0
1 -76 -24 0
1 -79 61 0
1 -79 76 0
1 79 94 0
1 79 -89 0
1 79 -90 0
1 -79 -73 0
1 79 -24 0
1 -61 -84 0
1 -61 -54 0
1 61 -72 0
1 -61 -67 0
1 -61 68 0
1 61 -79 0
1 61 91 0
1 90 67 0
1 90 -68 0
1 90 -86 0
1 -90 55 0
1 90 75 0
1 -90 -66 0
1 92 49 0
1 92 -76 0
1 92 67 0
1 92 -68 0
1 92 89 0
1 92 -79 0
1 -92 66 0
1 92 -91 0
1 89 76 0
1 -89 50 0
1 89 -79 0
1 89 66 0
1 89 -91 0
1 -72 -71 0
1 72 -81 0
1 -72 -95 0
1 72 -13 0
1 -72 -96 0
1 -72 65 0
1 -75 -15 0
1 -75 -72 0
1 75 61 0
1 75 -94 0
1 75 -77 0
1 -75 83 0
1 75 96 0
1 -75 24 0
1 84 -71 0
1 -84 -80 0
1 84 -61 0
1 -84 94 0
1 -84 95 0
1 84 96 0
1 84 -65 0
1 86 -71 0
1 -86 84 0
1 -86 77 0
1 -86 65 0
1 95 -84 0
1 95 72 0
1 -95 76 0
1 -95 -86 0
1 95 75 0
1 95 -65 0
1 -65 -95 0
1 65 86 0
1 -65 -57 0
1 94 -96 0
1 -94 72 0
1 -94 -58 0
1 94 76 0
1 94 86 0
1 -94 -79 0
1 -96 72 0
1 -96 -76 0
1 -96 -56 0
